generated by phonopy
   1.0
    30.0000000000000000    0.0000000000000000    0.0000000000000000
     0.0000000000000000   30.0000000000000000    0.0000000000000000
     0.0000000000000000    0.0000000000000000  150.0000000000000000
Hf   Nb   Sc   Sn   Zr
432  432  432  432  432
Direct
  0.2083333333333333  0.0416666666666667  0.0083333333333333
  0.5416666666666666  0.0416666666666667  0.0083333333333333
  0.8750000000000000  0.0416666666666667  0.0083333333333333
  0.2916666666666666  0.1250000000000000  0.0083333333333333
  0.6250000000000000  0.1250000000000000  0.0083333333333333
  0.9583333333333333  0.1250000000000000  0.0083333333333333
  0.0416666666666667  0.2083333333333333  0.0083333333333333
  0.3750000000000000  0.2083333333333333  0.0083333333333333
  0.7083333333333333  0.2083333333333333  0.0083333333333333
  0.1250000000000000  0.2916666666666666  0.0083333333333333
  0.4583333333333333  0.2916666666666666  0.0083333333333333
  0.7916666666666666  0.2916666666666666  0.0083333333333333
  0.2083333333333333  0.3750000000000000  0.0083333333333333
  0.5416666666666666  0.3750000000000000  0.0083333333333333
  0.8750000000000000  0.3750000000000000  0.0083333333333333
  0.2916666666666666  0.4583333333333333  0.0083333333333333
  0.6250000000000000  0.4583333333333333  0.0083333333333333
  0.9583333333333333  0.4583333333333333  0.0083333333333333
  0.0416666666666667  0.5416666666666666  0.0083333333333333
  0.3750000000000000  0.5416666666666666  0.0083333333333333
  0.7083333333333333  0.5416666666666666  0.0083333333333333
  0.1250000000000000  0.6250000000000000  0.0083333333333333
  0.4583333333333333  0.6250000000000000  0.0083333333333333
  0.7916666666666666  0.6250000000000000  0.0083333333333333
  0.2083333333333333  0.7083333333333333  0.0083333333333333
  0.5416666666666666  0.7083333333333333  0.0083333333333333
  0.8750000000000000  0.7083333333333333  0.0083333333333333
  0.2916666666666666  0.7916666666666666  0.0083333333333333
  0.6250000000000000  0.7916666666666666  0.0083333333333333
  0.9583333333333333  0.7916666666666666  0.0083333333333333
  0.0416666666666667  0.8750000000000000  0.0083333333333333
  0.3750000000000000  0.8750000000000000  0.0083333333333333
  0.7083333333333333  0.8750000000000000  0.0083333333333333
  0.1250000000000000  0.9583333333333333  0.0083333333333333
  0.4583333333333333  0.9583333333333333  0.0083333333333333
  0.7916666666666666  0.9583333333333333  0.0083333333333333
  0.2916666666666666  0.0416666666666667  0.0250000000000000
  0.6250000000000000  0.0416666666666667  0.0250000000000000
  0.9583333333333333  0.0416666666666667  0.0250000000000000
  0.2083333333333333  0.1250000000000000  0.0250000000000000
  0.5416666666666666  0.1250000000000000  0.0250000000000000
  0.8750000000000000  0.1250000000000000  0.0250000000000000
  0.1250000000000000  0.2083333333333333  0.0250000000000000
  0.4583333333333333  0.2083333333333333  0.0250000000000000
  0.7916666666666666  0.2083333333333333  0.0250000000000000
  0.0416666666666667  0.2916666666666666  0.0250000000000000
  0.3750000000000000  0.2916666666666666  0.0250000000000000
  0.7083333333333333  0.2916666666666666  0.0250000000000000
  0.2916666666666666  0.3750000000000000  0.0250000000000000
  0.6250000000000000  0.3750000000000000  0.0250000000000000
  0.9583333333333333  0.3750000000000000  0.0250000000000000
  0.2083333333333333  0.4583333333333333  0.0250000000000000
  0.5416666666666666  0.4583333333333333  0.0250000000000000
  0.8750000000000000  0.4583333333333333  0.0250000000000000
  0.1250000000000000  0.5416666666666666  0.0250000000000000
  0.4583333333333333  0.5416666666666666  0.0250000000000000
  0.7916666666666666  0.5416666666666666  0.0250000000000000
  0.0416666666666667  0.6250000000000000  0.0250000000000000
  0.3750000000000000  0.6250000000000000  0.0250000000000000
  0.7083333333333333  0.6250000000000000  0.0250000000000000
  0.2916666666666666  0.7083333333333333  0.0250000000000000
  0.6250000000000000  0.7083333333333333  0.0250000000000000
  0.9583333333333333  0.7083333333333333  0.0250000000000000
  0.2083333333333333  0.7916666666666666  0.0250000000000000
  0.5416666666666666  0.7916666666666666  0.0250000000000000
  0.8750000000000000  0.7916666666666666  0.0250000000000000
  0.1250000000000000  0.8750000000000000  0.0250000000000000
  0.4583333333333333  0.8750000000000000  0.0250000000000000
  0.7916666666666666  0.8750000000000000  0.0250000000000000
  0.0416666666666667  0.9583333333333333  0.0250000000000000
  0.3750000000000000  0.9583333333333333  0.0250000000000000
  0.7083333333333333  0.9583333333333333  0.0250000000000000
  0.0416666666666667  0.0416666666666667  0.0416666666666667
  0.3750000000000000  0.0416666666666667  0.0416666666666667
  0.7083333333333333  0.0416666666666667  0.0416666666666667
  0.1250000000000000  0.1250000000000000  0.0416666666666667
  0.4583333333333333  0.1250000000000000  0.0416666666666667
  0.7916666666666666  0.1250000000000000  0.0416666666666667
  0.2083333333333333  0.2083333333333333  0.0416666666666667
  0.5416666666666666  0.2083333333333333  0.0416666666666667
  0.8750000000000000  0.2083333333333333  0.0416666666666667
  0.2916666666666666  0.2916666666666666  0.0416666666666667
  0.6250000000000000  0.2916666666666666  0.0416666666666667
  0.9583333333333333  0.2916666666666666  0.0416666666666667
  0.0416666666666667  0.3750000000000000  0.0416666666666667
  0.3750000000000000  0.3750000000000000  0.0416666666666667
  0.7083333333333333  0.3750000000000000  0.0416666666666667
  0.1250000000000000  0.4583333333333333  0.0416666666666667
  0.4583333333333333  0.4583333333333333  0.0416666666666667
  0.7916666666666666  0.4583333333333333  0.0416666666666667
  0.2083333333333333  0.5416666666666666  0.0416666666666667
  0.5416666666666666  0.5416666666666666  0.0416666666666667
  0.8750000000000000  0.5416666666666666  0.0416666666666667
  0.2916666666666666  0.6250000000000000  0.0416666666666667
  0.6250000000000000  0.6250000000000000  0.0416666666666667
  0.9583333333333333  0.6250000000000000  0.0416666666666667
  0.0416666666666667  0.7083333333333333  0.0416666666666667
  0.3750000000000000  0.7083333333333333  0.0416666666666667
  0.7083333333333333  0.7083333333333333  0.0416666666666667
  0.1250000000000000  0.7916666666666666  0.0416666666666667
  0.4583333333333333  0.7916666666666666  0.0416666666666667
  0.7916666666666666  0.7916666666666666  0.0416666666666667
  0.2083333333333333  0.8750000000000000  0.0416666666666667
  0.5416666666666666  0.8750000000000000  0.0416666666666667
  0.8750000000000000  0.8750000000000000  0.0416666666666667
  0.2916666666666666  0.9583333333333333  0.0416666666666667
  0.6250000000000000  0.9583333333333333  0.0416666666666667
  0.9583333333333333  0.9583333333333333  0.0416666666666667
  0.1250000000000000  0.0416666666666667  0.0583333333333333
  0.4583333333333333  0.0416666666666667  0.0583333333333333
  0.7916666666666666  0.0416666666666667  0.0583333333333333
  0.0416666666666667  0.1250000000000000  0.0583333333333333
  0.3750000000000000  0.1250000000000000  0.0583333333333333
  0.7083333333333333  0.1250000000000000  0.0583333333333333
  0.2916666666666666  0.2083333333333333  0.0583333333333333
  0.6250000000000000  0.2083333333333333  0.0583333333333333
  0.9583333333333333  0.2083333333333333  0.0583333333333333
  0.2083333333333333  0.2916666666666666  0.0583333333333333
  0.5416666666666666  0.2916666666666666  0.0583333333333333
  0.8750000000000000  0.2916666666666666  0.0583333333333333
  0.1250000000000000  0.3750000000000000  0.0583333333333333
  0.4583333333333333  0.3750000000000000  0.0583333333333333
  0.7916666666666666  0.3750000000000000  0.0583333333333333
  0.0416666666666667  0.4583333333333333  0.0583333333333333
  0.3750000000000000  0.4583333333333333  0.0583333333333333
  0.7083333333333333  0.4583333333333333  0.0583333333333333
  0.2916666666666666  0.5416666666666666  0.0583333333333333
  0.6250000000000000  0.5416666666666666  0.0583333333333333
  0.9583333333333333  0.5416666666666666  0.0583333333333333
  0.2083333333333333  0.6250000000000000  0.0583333333333333
  0.5416666666666666  0.6250000000000000  0.0583333333333333
  0.8750000000000000  0.6250000000000000  0.0583333333333333
  0.1250000000000000  0.7083333333333333  0.0583333333333333
  0.4583333333333333  0.7083333333333333  0.0583333333333333
  0.7916666666666666  0.7083333333333333  0.0583333333333333
  0.0416666666666667  0.7916666666666666  0.0583333333333333
  0.3750000000000000  0.7916666666666666  0.0583333333333333
  0.7083333333333333  0.7916666666666666  0.0583333333333333
  0.2916666666666666  0.8750000000000000  0.0583333333333333
  0.6250000000000000  0.8750000000000000  0.0583333333333333
  0.9583333333333333  0.8750000000000000  0.0583333333333333
  0.2083333333333333  0.9583333333333333  0.0583333333333333
  0.5416666666666666  0.9583333333333333  0.0583333333333333
  0.8750000000000000  0.9583333333333333  0.0583333333333333
  0.2083333333333333  0.0416666666666667  0.0750000000000000
  0.5416666666666666  0.0416666666666667  0.0750000000000000
  0.8750000000000000  0.0416666666666667  0.0750000000000000
  0.2916666666666666  0.1250000000000000  0.0750000000000000
  0.6250000000000000  0.1250000000000000  0.0750000000000000
  0.9583333333333333  0.1250000000000000  0.0750000000000000
  0.0416666666666667  0.2083333333333333  0.0750000000000000
  0.3750000000000000  0.2083333333333333  0.0750000000000000
  0.7083333333333333  0.2083333333333333  0.0750000000000000
  0.1250000000000000  0.2916666666666666  0.0750000000000000
  0.4583333333333333  0.2916666666666666  0.0750000000000000
  0.7916666666666666  0.2916666666666666  0.0750000000000000
  0.2083333333333333  0.3750000000000000  0.0750000000000000
  0.5416666666666666  0.3750000000000000  0.0750000000000000
  0.8750000000000000  0.3750000000000000  0.0750000000000000
  0.2916666666666666  0.4583333333333333  0.0750000000000000
  0.6250000000000000  0.4583333333333333  0.0750000000000000
  0.9583333333333333  0.4583333333333333  0.0750000000000000
  0.0416666666666667  0.5416666666666666  0.0750000000000000
  0.3750000000000000  0.5416666666666666  0.0750000000000000
  0.7083333333333333  0.5416666666666666  0.0750000000000000
  0.1250000000000000  0.6250000000000000  0.0750000000000000
  0.4583333333333333  0.6250000000000000  0.0750000000000000
  0.7916666666666666  0.6250000000000000  0.0750000000000000
  0.2083333333333333  0.7083333333333333  0.0750000000000000
  0.5416666666666666  0.7083333333333333  0.0750000000000000
  0.8750000000000000  0.7083333333333333  0.0750000000000000
  0.2916666666666666  0.7916666666666666  0.0750000000000000
  0.6250000000000000  0.7916666666666666  0.0750000000000000
  0.9583333333333333  0.7916666666666666  0.0750000000000000
  0.0416666666666667  0.8750000000000000  0.0750000000000000
  0.3750000000000000  0.8750000000000000  0.0750000000000000
  0.7083333333333333  0.8750000000000000  0.0750000000000000
  0.1250000000000000  0.9583333333333333  0.0750000000000000
  0.4583333333333333  0.9583333333333333  0.0750000000000000
  0.7916666666666666  0.9583333333333333  0.0750000000000000
  0.2916666666666666  0.0416666666666667  0.0916666666666667
  0.6250000000000000  0.0416666666666667  0.0916666666666667
  0.9583333333333333  0.0416666666666667  0.0916666666666667
  0.2083333333333333  0.1250000000000000  0.0916666666666667
  0.5416666666666666  0.1250000000000000  0.0916666666666667
  0.8750000000000000  0.1250000000000000  0.0916666666666667
  0.1250000000000000  0.2083333333333333  0.0916666666666667
  0.4583333333333333  0.2083333333333333  0.0916666666666667
  0.7916666666666666  0.2083333333333333  0.0916666666666667
  0.0416666666666667  0.2916666666666666  0.0916666666666667
  0.3750000000000000  0.2916666666666666  0.0916666666666667
  0.7083333333333333  0.2916666666666666  0.0916666666666667
  0.2916666666666666  0.3750000000000000  0.0916666666666667
  0.6250000000000000  0.3750000000000000  0.0916666666666667
  0.9583333333333333  0.3750000000000000  0.0916666666666667
  0.2083333333333333  0.4583333333333333  0.0916666666666667
  0.5416666666666666  0.4583333333333333  0.0916666666666667
  0.8750000000000000  0.4583333333333333  0.0916666666666667
  0.1250000000000000  0.5416666666666666  0.0916666666666667
  0.4583333333333333  0.5416666666666666  0.0916666666666667
  0.7916666666666666  0.5416666666666666  0.0916666666666667
  0.0416666666666667  0.6250000000000000  0.0916666666666667
  0.3750000000000000  0.6250000000000000  0.0916666666666667
  0.7083333333333333  0.6250000000000000  0.0916666666666667
  0.2916666666666666  0.7083333333333333  0.0916666666666667
  0.6250000000000000  0.7083333333333333  0.0916666666666667
  0.9583333333333333  0.7083333333333333  0.0916666666666667
  0.2083333333333333  0.7916666666666666  0.0916666666666667
  0.5416666666666666  0.7916666666666666  0.0916666666666667
  0.8750000000000000  0.7916666666666666  0.0916666666666667
  0.1250000000000000  0.8750000000000000  0.0916666666666667
  0.4583333333333333  0.8750000000000000  0.0916666666666667
  0.7916666666666666  0.8750000000000000  0.0916666666666667
  0.0416666666666667  0.9583333333333333  0.0916666666666667
  0.3750000000000000  0.9583333333333333  0.0916666666666667
  0.7083333333333333  0.9583333333333333  0.0916666666666667
  0.0416666666666667  0.0416666666666667  0.1083333333333333
  0.3750000000000000  0.0416666666666667  0.1083333333333333
  0.7083333333333333  0.0416666666666667  0.1083333333333333
  0.1250000000000000  0.1250000000000000  0.1083333333333333
  0.4583333333333333  0.1250000000000000  0.1083333333333333
  0.7916666666666666  0.1250000000000000  0.1083333333333333
  0.2083333333333333  0.2083333333333333  0.1083333333333333
  0.5416666666666666  0.2083333333333333  0.1083333333333333
  0.8750000000000000  0.2083333333333333  0.1083333333333333
  0.2916666666666666  0.2916666666666666  0.1083333333333333
  0.6250000000000000  0.2916666666666666  0.1083333333333333
  0.9583333333333333  0.2916666666666666  0.1083333333333333
  0.0416666666666667  0.3750000000000000  0.1083333333333333
  0.3750000000000000  0.3750000000000000  0.1083333333333333
  0.7083333333333333  0.3750000000000000  0.1083333333333333
  0.1250000000000000  0.4583333333333333  0.1083333333333333
  0.4583333333333333  0.4583333333333333  0.1083333333333333
  0.7916666666666666  0.4583333333333333  0.1083333333333333
  0.2083333333333333  0.5416666666666666  0.1083333333333333
  0.5416666666666666  0.5416666666666666  0.1083333333333333
  0.8750000000000000  0.5416666666666666  0.1083333333333333
  0.2916666666666666  0.6250000000000000  0.1083333333333333
  0.6250000000000000  0.6250000000000000  0.1083333333333333
  0.9583333333333333  0.6250000000000000  0.1083333333333333
  0.0416666666666667  0.7083333333333333  0.1083333333333333
  0.3750000000000000  0.7083333333333333  0.1083333333333333
  0.7083333333333333  0.7083333333333333  0.1083333333333333
  0.1250000000000000  0.7916666666666666  0.1083333333333333
  0.4583333333333333  0.7916666666666666  0.1083333333333333
  0.7916666666666666  0.7916666666666666  0.1083333333333333
  0.2083333333333333  0.8750000000000000  0.1083333333333333
  0.5416666666666666  0.8750000000000000  0.1083333333333333
  0.8750000000000000  0.8750000000000000  0.1083333333333333
  0.2916666666666666  0.9583333333333333  0.1083333333333333
  0.6250000000000000  0.9583333333333333  0.1083333333333333
  0.9583333333333333  0.9583333333333333  0.1083333333333333
  0.1250000000000000  0.0416666666666667  0.1250000000000000
  0.4583333333333333  0.0416666666666667  0.1250000000000000
  0.7916666666666666  0.0416666666666667  0.1250000000000000
  0.0416666666666667  0.1250000000000000  0.1250000000000000
  0.3750000000000000  0.1250000000000000  0.1250000000000000
  0.7083333333333333  0.1250000000000000  0.1250000000000000
  0.2916666666666666  0.2083333333333333  0.1250000000000000
  0.6250000000000000  0.2083333333333333  0.1250000000000000
  0.9583333333333333  0.2083333333333333  0.1250000000000000
  0.2083333333333333  0.2916666666666666  0.1250000000000000
  0.5416666666666666  0.2916666666666666  0.1250000000000000
  0.8750000000000000  0.2916666666666666  0.1250000000000000
  0.1250000000000000  0.3750000000000000  0.1250000000000000
  0.4583333333333333  0.3750000000000000  0.1250000000000000
  0.7916666666666666  0.3750000000000000  0.1250000000000000
  0.0416666666666667  0.4583333333333333  0.1250000000000000
  0.3750000000000000  0.4583333333333333  0.1250000000000000
  0.7083333333333333  0.4583333333333333  0.1250000000000000
  0.2916666666666666  0.5416666666666666  0.1250000000000000
  0.6250000000000000  0.5416666666666666  0.1250000000000000
  0.9583333333333333  0.5416666666666666  0.1250000000000000
  0.2083333333333333  0.6250000000000000  0.1250000000000000
  0.5416666666666666  0.6250000000000000  0.1250000000000000
  0.8750000000000000  0.6250000000000000  0.1250000000000000
  0.1250000000000000  0.7083333333333333  0.1250000000000000
  0.4583333333333333  0.7083333333333333  0.1250000000000000
  0.7916666666666666  0.7083333333333333  0.1250000000000000
  0.0416666666666667  0.7916666666666666  0.1250000000000000
  0.3750000000000000  0.7916666666666666  0.1250000000000000
  0.7083333333333333  0.7916666666666666  0.1250000000000000
  0.2916666666666666  0.8750000000000000  0.1250000000000000
  0.6250000000000000  0.8750000000000000  0.1250000000000000
  0.9583333333333333  0.8750000000000000  0.1250000000000000
  0.2083333333333333  0.9583333333333333  0.1250000000000000
  0.5416666666666666  0.9583333333333333  0.1250000000000000
  0.8750000000000000  0.9583333333333333  0.1250000000000000
  0.2083333333333333  0.0416666666666667  0.1416666666666667
  0.5416666666666666  0.0416666666666667  0.1416666666666667
  0.8750000000000000  0.0416666666666667  0.1416666666666667
  0.2916666666666666  0.1250000000000000  0.1416666666666667
  0.6250000000000000  0.1250000000000000  0.1416666666666667
  0.9583333333333333  0.1250000000000000  0.1416666666666667
  0.0416666666666667  0.2083333333333333  0.1416666666666667
  0.3750000000000000  0.2083333333333333  0.1416666666666667
  0.7083333333333333  0.2083333333333333  0.1416666666666667
  0.1250000000000000  0.2916666666666666  0.1416666666666667
  0.4583333333333333  0.2916666666666666  0.1416666666666667
  0.7916666666666666  0.2916666666666666  0.1416666666666667
  0.2083333333333333  0.3750000000000000  0.1416666666666667
  0.5416666666666666  0.3750000000000000  0.1416666666666667
  0.8750000000000000  0.3750000000000000  0.1416666666666667
  0.2916666666666666  0.4583333333333333  0.1416666666666667
  0.6250000000000000  0.4583333333333333  0.1416666666666667
  0.9583333333333333  0.4583333333333333  0.1416666666666667
  0.0416666666666667  0.5416666666666666  0.1416666666666667
  0.3750000000000000  0.5416666666666666  0.1416666666666667
  0.7083333333333333  0.5416666666666666  0.1416666666666667
  0.1250000000000000  0.6250000000000000  0.1416666666666667
  0.4583333333333333  0.6250000000000000  0.1416666666666667
  0.7916666666666666  0.6250000000000000  0.1416666666666667
  0.2083333333333333  0.7083333333333333  0.1416666666666667
  0.5416666666666666  0.7083333333333333  0.1416666666666667
  0.8750000000000000  0.7083333333333333  0.1416666666666667
  0.2916666666666666  0.7916666666666666  0.1416666666666667
  0.6250000000000000  0.7916666666666666  0.1416666666666667
  0.9583333333333333  0.7916666666666666  0.1416666666666667
  0.0416666666666667  0.8750000000000000  0.1416666666666667
  0.3750000000000000  0.8750000000000000  0.1416666666666667
  0.7083333333333333  0.8750000000000000  0.1416666666666667
  0.1250000000000000  0.9583333333333333  0.1416666666666667
  0.4583333333333333  0.9583333333333333  0.1416666666666667
  0.7916666666666666  0.9583333333333333  0.1416666666666667
  0.2916666666666666  0.0416666666666667  0.1583333333333333
  0.6250000000000000  0.0416666666666667  0.1583333333333333
  0.9583333333333333  0.0416666666666667  0.1583333333333333
  0.2083333333333333  0.1250000000000000  0.1583333333333333
  0.5416666666666666  0.1250000000000000  0.1583333333333333
  0.8750000000000000  0.1250000000000000  0.1583333333333333
  0.1250000000000000  0.2083333333333333  0.1583333333333333
  0.4583333333333333  0.2083333333333333  0.1583333333333333
  0.7916666666666666  0.2083333333333333  0.1583333333333333
  0.0416666666666667  0.2916666666666666  0.1583333333333333
  0.3750000000000000  0.2916666666666666  0.1583333333333333
  0.7083333333333333  0.2916666666666666  0.1583333333333333
  0.2916666666666666  0.3750000000000000  0.1583333333333333
  0.6250000000000000  0.3750000000000000  0.1583333333333333
  0.9583333333333333  0.3750000000000000  0.1583333333333333
  0.2083333333333333  0.4583333333333333  0.1583333333333333
  0.5416666666666666  0.4583333333333333  0.1583333333333333
  0.8750000000000000  0.4583333333333333  0.1583333333333333
  0.1250000000000000  0.5416666666666666  0.1583333333333333
  0.4583333333333333  0.5416666666666666  0.1583333333333333
  0.7916666666666666  0.5416666666666666  0.1583333333333333
  0.0416666666666667  0.6250000000000000  0.1583333333333333
  0.3750000000000000  0.6250000000000000  0.1583333333333333
  0.7083333333333333  0.6250000000000000  0.1583333333333333
  0.2916666666666666  0.7083333333333333  0.1583333333333333
  0.6250000000000000  0.7083333333333333  0.1583333333333333
  0.9583333333333333  0.7083333333333333  0.1583333333333333
  0.2083333333333333  0.7916666666666666  0.1583333333333333
  0.5416666666666666  0.7916666666666666  0.1583333333333333
  0.8750000000000000  0.7916666666666666  0.1583333333333333
  0.1250000000000000  0.8750000000000000  0.1583333333333333
  0.4583333333333333  0.8750000000000000  0.1583333333333333
  0.7916666666666666  0.8750000000000000  0.1583333333333333
  0.0416666666666667  0.9583333333333333  0.1583333333333333
  0.3750000000000000  0.9583333333333333  0.1583333333333333
  0.7083333333333333  0.9583333333333333  0.1583333333333333
  0.0416666666666667  0.0416666666666667  0.1750000000000000
  0.3750000000000000  0.0416666666666667  0.1750000000000000
  0.7083333333333333  0.0416666666666667  0.1750000000000000
  0.1250000000000000  0.1250000000000000  0.1750000000000000
  0.4583333333333333  0.1250000000000000  0.1750000000000000
  0.7916666666666666  0.1250000000000000  0.1750000000000000
  0.2083333333333333  0.2083333333333333  0.1750000000000000
  0.5416666666666666  0.2083333333333333  0.1750000000000000
  0.8750000000000000  0.2083333333333333  0.1750000000000000
  0.2916666666666666  0.2916666666666666  0.1750000000000000
  0.6250000000000000  0.2916666666666666  0.1750000000000000
  0.9583333333333333  0.2916666666666666  0.1750000000000000
  0.0416666666666667  0.3750000000000000  0.1750000000000000
  0.3750000000000000  0.3750000000000000  0.1750000000000000
  0.7083333333333333  0.3750000000000000  0.1750000000000000
  0.1250000000000000  0.4583333333333333  0.1750000000000000
  0.4583333333333333  0.4583333333333333  0.1750000000000000
  0.7916666666666666  0.4583333333333333  0.1750000000000000
  0.2083333333333333  0.5416666666666666  0.1750000000000000
  0.5416666666666666  0.5416666666666666  0.1750000000000000
  0.8750000000000000  0.5416666666666666  0.1750000000000000
  0.2916666666666666  0.6250000000000000  0.1750000000000000
  0.6250000000000000  0.6250000000000000  0.1750000000000000
  0.9583333333333333  0.6250000000000000  0.1750000000000000
  0.0416666666666667  0.7083333333333333  0.1750000000000000
  0.3750000000000000  0.7083333333333333  0.1750000000000000
  0.7083333333333333  0.7083333333333333  0.1750000000000000
  0.1250000000000000  0.7916666666666666  0.1750000000000000
  0.4583333333333333  0.7916666666666666  0.1750000000000000
  0.7916666666666666  0.7916666666666666  0.1750000000000000
  0.2083333333333333  0.8750000000000000  0.1750000000000000
  0.5416666666666666  0.8750000000000000  0.1750000000000000
  0.8750000000000000  0.8750000000000000  0.1750000000000000
  0.2916666666666666  0.9583333333333333  0.1750000000000000
  0.6250000000000000  0.9583333333333333  0.1750000000000000
  0.9583333333333333  0.9583333333333333  0.1750000000000000
  0.1250000000000000  0.0416666666666667  0.1916666666666667
  0.4583333333333333  0.0416666666666667  0.1916666666666667
  0.7916666666666666  0.0416666666666667  0.1916666666666667
  0.0416666666666667  0.1250000000000000  0.1916666666666667
  0.3750000000000000  0.1250000000000000  0.1916666666666667
  0.7083333333333333  0.1250000000000000  0.1916666666666667
  0.2916666666666666  0.2083333333333333  0.1916666666666667
  0.6250000000000000  0.2083333333333333  0.1916666666666667
  0.9583333333333333  0.2083333333333333  0.1916666666666667
  0.2083333333333333  0.2916666666666666  0.1916666666666667
  0.5416666666666666  0.2916666666666666  0.1916666666666667
  0.8750000000000000  0.2916666666666666  0.1916666666666667
  0.1250000000000000  0.3750000000000000  0.1916666666666667
  0.4583333333333333  0.3750000000000000  0.1916666666666667
  0.7916666666666666  0.3750000000000000  0.1916666666666667
  0.0416666666666667  0.4583333333333333  0.1916666666666667
  0.3750000000000000  0.4583333333333333  0.1916666666666667
  0.7083333333333333  0.4583333333333333  0.1916666666666667
  0.2916666666666666  0.5416666666666666  0.1916666666666667
  0.6250000000000000  0.5416666666666666  0.1916666666666667
  0.9583333333333333  0.5416666666666666  0.1916666666666667
  0.2083333333333333  0.6250000000000000  0.1916666666666667
  0.5416666666666666  0.6250000000000000  0.1916666666666667
  0.8750000000000000  0.6250000000000000  0.1916666666666667
  0.1250000000000000  0.7083333333333333  0.1916666666666667
  0.4583333333333333  0.7083333333333333  0.1916666666666667
  0.7916666666666666  0.7083333333333333  0.1916666666666667
  0.0416666666666667  0.7916666666666666  0.1916666666666667
  0.3750000000000000  0.7916666666666666  0.1916666666666667
  0.7083333333333333  0.7916666666666666  0.1916666666666667
  0.2916666666666666  0.8750000000000000  0.1916666666666667
  0.6250000000000000  0.8750000000000000  0.1916666666666667
  0.9583333333333333  0.8750000000000000  0.1916666666666667
  0.2083333333333333  0.9583333333333333  0.1916666666666667
  0.5416666666666666  0.9583333333333333  0.1916666666666667
  0.8750000000000000  0.9583333333333333  0.1916666666666667
  0.2083333333333333  0.0416666666666667  0.2083333333333333
  0.5416666666666666  0.0416666666666667  0.2083333333333333
  0.8750000000000000  0.0416666666666667  0.2083333333333333
  0.2916666666666666  0.1250000000000000  0.2083333333333333
  0.6250000000000000  0.1250000000000000  0.2083333333333333
  0.9583333333333333  0.1250000000000000  0.2083333333333333
  0.0416666666666667  0.2083333333333333  0.2083333333333333
  0.3750000000000000  0.2083333333333333  0.2083333333333333
  0.7083333333333333  0.2083333333333333  0.2083333333333333
  0.1250000000000000  0.2916666666666666  0.2083333333333333
  0.4583333333333333  0.2916666666666666  0.2083333333333333
  0.7916666666666666  0.2916666666666666  0.2083333333333333
  0.2083333333333333  0.3750000000000000  0.2083333333333333
  0.5416666666666666  0.3750000000000000  0.2083333333333333
  0.8750000000000000  0.3750000000000000  0.2083333333333333
  0.2916666666666666  0.4583333333333333  0.2083333333333333
  0.6250000000000000  0.4583333333333333  0.2083333333333333
  0.9583333333333333  0.4583333333333333  0.2083333333333333
  0.0416666666666667  0.5416666666666666  0.2083333333333333
  0.3750000000000000  0.5416666666666666  0.2083333333333333
  0.7083333333333333  0.5416666666666666  0.2083333333333333
  0.1250000000000000  0.6250000000000000  0.2083333333333333
  0.4583333333333333  0.6250000000000000  0.2083333333333333
  0.7916666666666666  0.6250000000000000  0.2083333333333333
  0.2083333333333333  0.7083333333333333  0.2083333333333333
  0.5416666666666666  0.7083333333333333  0.2083333333333333
  0.8750000000000000  0.7083333333333333  0.2083333333333333
  0.2916666666666666  0.7916666666666666  0.2083333333333333
  0.6250000000000000  0.7916666666666666  0.2083333333333333
  0.9583333333333333  0.7916666666666666  0.2083333333333333
  0.0416666666666667  0.8750000000000000  0.2083333333333333
  0.3750000000000000  0.8750000000000000  0.2083333333333333
  0.7083333333333333  0.8750000000000000  0.2083333333333333
  0.1250000000000000  0.9583333333333333  0.2083333333333333
  0.4583333333333333  0.9583333333333333  0.2083333333333333
  0.7916666666666666  0.9583333333333333  0.2083333333333333
  0.2916666666666666  0.0416666666666667  0.2250000000000000
  0.6250000000000000  0.0416666666666667  0.2250000000000000
  0.9583333333333333  0.0416666666666667  0.2250000000000000
  0.2083333333333333  0.1250000000000000  0.2250000000000000
  0.5416666666666666  0.1250000000000000  0.2250000000000000
  0.8750000000000000  0.1250000000000000  0.2250000000000000
  0.1250000000000000  0.2083333333333333  0.2250000000000000
  0.4583333333333333  0.2083333333333333  0.2250000000000000
  0.7916666666666666  0.2083333333333333  0.2250000000000000
  0.0416666666666667  0.2916666666666666  0.2250000000000000
  0.3750000000000000  0.2916666666666666  0.2250000000000000
  0.7083333333333333  0.2916666666666666  0.2250000000000000
  0.2916666666666666  0.3750000000000000  0.2250000000000000
  0.6250000000000000  0.3750000000000000  0.2250000000000000
  0.9583333333333333  0.3750000000000000  0.2250000000000000
  0.2083333333333333  0.4583333333333333  0.2250000000000000
  0.5416666666666666  0.4583333333333333  0.2250000000000000
  0.8750000000000000  0.4583333333333333  0.2250000000000000
  0.1250000000000000  0.5416666666666666  0.2250000000000000